n_potions = 66;
alchemy = [1, 5, 5, 5, 4, 3, 2, 1, 1, 2, 1, 2, 5, 2, 1, 5, 5, 3, 3, 1, 2, 5, 1, 1, 2, 5, 4, 4, 2, 5, 2, 2, 4, 4, 5, 5, 2, 3, 5, 3, 3, 2, 5, 5, 4, 2, 4, 3, 3, 3, 3, 1, 4, 2, 4, 3, 4, 2, 5, 4, 3, 3, 5, 2, 3, 2];
n_days = 12;
min_potions = 5;
max_potions = 7;
min_alchemists = 5;
max_alchemists = 35;
prereqs = [|8,2
|8,6
|11,6
|12,7
|13,8
|13,11
|14,3
|17,10
|18,11
|19,8
|19,11
|20,9
|23,17
|23,18
|26,13
|26,23
|30,9
|33,27
|34,17
|35,9
|35,17
|35,18
|37,30
|38,33
|39,35
|41,9
|41,17
|41,18
|44,16
|45,38
|46,37
|47,42
|48,34
|49,30
|49,32
|50,43
|51,33
|53,47
|54,50
|55,43
|55,38
|56,51
|57,39
|57,34
|58,28
|59,55
|61,55
|62,31
|63,48
|65,59
|];
